NAME : BB60.2420055.tour
COMMENT : Cost = 0_2420055
COMMENT : Found by LKH [Keld Helsgaun] Sun Apr 23 15:14:35 2017
TYPE : TOUR
DIMENSION : 126
TOUR_SECTION
1
11
71
45
105
36
96
3
63
27
87
35
95
56
116
20
8
68
53
113
80
123
30
90
19
79
4
64
9
69
23
83
43
103
26
86
14
74
24
84
126
57
117
52
112
13
73
25
85
5
65
47
107
10
70
6
66
40
100
39
99
125
16
76
12
21
72
59
81
49
109
37
97
119
54
114
42
102
46
106
58
2
62
118
122
44
60
104
50
110
34
15
94
120
75
55
115
29
61
121
89
48
108
7
67
33
93
124
18
78
28
88
32
92
51
111
41
101
38
22
98
31
82
91
17
77
-1
EOF
